TYPE : Vertex Cover
DIMENSION: 24
EDGE_DATA_SECTION:
0 5
0 7
0 11
0 15
0 17
0 22
0 23
1 2
1 10
1 17
2 4
2 6
2 17
2 21
3 9
3 23
4 12
4 18
4 19
4 21
4 22
4 23
5 11
5 15
5 19
6 14
6 16
6 19
7 9
7 14
7 19
8 22
10 11
10 12
10 18
10 21
11 12
11 21
12 15
12 19
12 22
13 19
13 22
14 18
15 19
17 18
17 21
18 19
20 21
-1
VERTEX_DEGREE:
7.0 3.0 5.0 2.0 7.0 4.0 4.0 4.0 1.0 2.0 5.0 5.0 6.0 2.0 3.0 4.0 1.0 5.0 5.0 8.0 1.0 6.0 5.0 3.0
VERTEX_COVER:
0 1 2 5 6 9 10 12 14 18 19 21 22 23
EOF
